23

C   -0.7665348425   0.3371535134   -1.4864134915
C   0.5103243610   -0.2838698803   -1.6556420638
C   -1.2173147036   0.0812259356   -0.1533267361
C   0.8475777324   -0.9215932291   -0.4212566021
C   -0.2177014173   -0.6981303949   0.5060837238
H   -0.2392933537   -1.0156902358   1.5399288751
H   -2.1274627298   0.4570468281   0.2944047523
H   -1.2791429900   0.9444987420   -2.2203982076
H   1.1749526191   -0.1592653458   -2.5093436727
H   1.7765646580   -1.4327755096   -0.2063638286
C   2.3412749284   1.8218164218   0.5760757262
C   1.2831234176   2.1076860320   1.4946154609
C   2.0205257788   2.4246785650   -0.6801736823
C   0.3022189386   2.8854790044   0.8058391876
C   0.7579858806   3.0801827019   -0.5357693015
H   0.2132386656   3.5850701582   -1.3221586405
H   2.5571271903   2.2785736923   -1.6157504403
H   3.2048528310   1.2032770344   0.7802042196
H   1.2114511567   1.7516148662   2.5135332415
H   -0.6421201205   3.2220131005   1.2120570720
Co   0.5718213653   1.0837150914   -0.1340526776
H   1.8932489768   1.5911256527   -3.6178079791
O   2.7206866572   1.0957352556   -3.5299749356
