$molecule
0 4
#insert xyz coordinates of CoCpOH fragment
$end

$rem
   MEM_total           20000
   MEM_static          5000
   METHOD              B3LYP
   DFT_D               D3_ZERO
   BASIS               GEN            !use m631g* for Co
   PURECART            11
   SYMMETRY_IGNORE     1
   unrestricted        true
   SCF_GUESS           sad
   JOBTYPE             opt
   MAX_SCF_CYCLES      2000
   SCF_CONVERGENCE     7
   GEOM_OPT_MAX_CYCLES 500
   SOLVENT_METHOD      PCM              !include H2O solvent
$end

$pcm
Theory          CPCM
Method          SWIG
Solver          Inversion
HeavyPoints     194
HPoints         194
Radii           read
vdwScale        1.2
$end

$solvent
Dielectric      78.39
$end

$van_der_waals
1
1       1.2000
6       1.9200
7       1.5500
8       1.5200
9       1.5138
15      1.8657
16      1.8153
17      1.7820
27      2.0000
35      1.8855
$end

$basis
Co     0
S   6   1.00
  66148.990000000            0.00175979
   9933.077000000            0.01348162
   2262.816000000            0.06649342
    637.915400000            0.23079390
    204.412200000            0.47929190
     69.825380000            0.35140970
SP   6   1.00
   1378.841000000            0.00237628             0.00397149
    328.269400000            0.03167450             0.03108174
    106.094600000            0.12628880             0.13574390
     39.832750000           -0.02584552             0.34768270
     16.186220000           -0.61834910             0.46263400
      6.667788000           -0.45670080             0.20516320
SP   6   1.00
     54.523550000           -0.00399300            -0.00729077
     18.297830000            0.07409663            -0.02926027
      7.867348000            0.25420000             0.06564150
      3.340534000           -0.29216570             0.40006520
      1.393756000           -0.73187030             0.49502360
      0.551326000           -0.20407840             0.17582400
SP   3   1.00
      2.151947000            0.05379843            -0.21654960
      0.811063000            0.27599710             0.12404880
      0.121017000           -1.12969200             0.97240640
SP   1   1.00
      0.043037000            1.00000000             1.00000000
D   3   1.00
     21.3342776067           0.1068275301
      5.5768194304           0.4266878706
      1.5985127182           0.6698677042
D   1   1.00
      0.3995329086           1.00000000
F   1   1.00
      0.80000000             1.00000000
****
H 0
6-31g**
****
C 0
6-31g**
****
O 0
6-31g**
****
F 0
6-31g**
****
N 0
6-31g**
****
S 0
6-31g**
****
P 0
6-31g**
****
Cl 0
6-31g**
****
Br 0
6-31g**
****
$end